NAME          DCAP_2_4_3_300_SS203
ROWS
 N  OBJ
 L  CON1
 L  CON2
 L  CON3
 L  CON4
 L  CON5
 L  CON6
 L  CON7
 L  CON8
 L  CON9
 L  CON10
 L  CON11
 L  CON12
 E  CON13
 E  CON14
 E  CON15
 E  CON16
 E  CON17
 E  CON18
 E  CON19
 E  CON20
 E  CON21
 E  CON22
 E  CON23
 E  CON24
COLUMNS
    x[1,1]    OBJ       6.180167      CON1      1.000000    
    x[1,1]    CON7      -1.000000     CON8      -1.000000   
    x[1,1]    CON9      -1.000000   
    x[1,2]    OBJ       6.563535      CON2      1.000000    
    x[1,2]    CON8      -1.000000     CON9      -1.000000   
    x[1,3]    OBJ       7.443064      CON3      1.000000    
    x[1,3]    CON9      -1.000000   
    x[2,1]    OBJ       6.732585      CON4      1.000000    
    x[2,1]    CON10     -1.000000     CON11     -1.000000   
    x[2,1]    CON12     -1.000000   
    x[2,2]    OBJ       5.039546      CON5      1.000000    
    x[2,2]    CON11     -1.000000     CON12     -1.000000   
    x[2,3]    OBJ       6.054841      CON6      1.000000    
    x[2,3]    CON12     -1.000000   
    MARKER    'MARKER'                'INTORG'
    u[1,1]    OBJ       48.076654     CON1      -1.000000   
    u[1,2]    OBJ       20.066487     CON2      -1.000000   
    u[1,3]    OBJ       32.230043     CON3      -1.000000   
    u[2,1]    OBJ       49.996186     CON4      -1.000000   
    u[2,2]    OBJ       49.466655     CON5      -1.000000   
    u[2,3]    OBJ       27.484319     CON6      -1.000000   
    y[1,1,1]  OBJ       7.193978      CON7      1.331536    
    y[1,1,1]  CON13     1.000000    
    y[1,1,2]  OBJ       9.481962      CON8      1.205254    
    y[1,1,2]  CON14     1.000000    
    y[1,1,3]  OBJ       8.378312      CON9      0.852738    
    y[1,1,3]  CON15     1.000000    
    y[1,2,1]  OBJ       9.457889      CON7      0.681760    
    y[1,2,1]  CON16     1.000000    
    y[1,2,2]  OBJ       9.339507      CON8      1.449473    
    y[1,2,2]  CON17     1.000000    
    y[1,2,3]  OBJ       5.503674      CON9      1.054203    
    y[1,2,3]  CON18     1.000000    
    y[1,3,1]  OBJ       5.088760      CON7      0.993947    
    y[1,3,1]  CON19     1.000000    
    y[1,3,2]  OBJ       8.381238      CON8      1.157413    
    y[1,3,2]  CON20     1.000000    
    y[1,3,3]  OBJ       5.259270      CON9      1.134475    
    y[1,3,3]  CON21     1.000000    
    y[1,4,1]  OBJ       9.687026      CON7      1.386313    
    y[1,4,1]  CON22     1.000000    
    y[1,4,2]  OBJ       6.941104      CON8      1.398121    
    y[1,4,2]  CON23     1.000000    
    y[1,4,3]  OBJ       9.842275      CON9      1.113254    
    y[1,4,3]  CON24     1.000000    
    y[2,1,1]  OBJ       9.308662      CON10     1.331536    
    y[2,1,1]  CON13     1.000000    
    y[2,1,2]  OBJ       5.253837      CON11     1.205254    
    y[2,1,2]  CON14     1.000000    
    y[2,1,3]  OBJ       7.969746      CON12     0.852738    
    y[2,1,3]  CON15     1.000000    
    y[2,2,1]  OBJ       6.497751      CON10     0.681760    
    y[2,2,1]  CON16     1.000000    
    y[2,2,2]  OBJ       7.930307      CON11     1.449473    
    y[2,2,2]  CON17     1.000000    
    y[2,2,3]  OBJ       7.976913      CON12     1.054203    
    y[2,2,3]  CON18     1.000000    
    y[2,3,1]  OBJ       9.770457      CON10     0.993947    
    y[2,3,1]  CON19     1.000000    
    y[2,3,2]  OBJ       6.500869      CON11     1.157413    
    y[2,3,2]  CON20     1.000000    
    y[2,3,3]  OBJ       7.393649      CON12     1.134475    
    y[2,3,3]  CON21     1.000000    
    y[2,4,1]  OBJ       6.062927      CON10     1.386313    
    y[2,4,1]  CON22     1.000000    
    y[2,4,2]  OBJ       7.993029      CON11     1.398121    
    y[2,4,2]  CON23     1.000000    
    y[2,4,3]  OBJ       8.493425      CON12     1.113254    
    y[2,4,3]  CON24     1.000000    
    z[1,1]    OBJ       883.060501    CON13     1.000000    
    z[1,2]    OBJ       507.907576    CON14     1.000000    
    z[1,3]    OBJ       958.496080    CON15     1.000000    
    z[2,1]    OBJ       916.014481    CON16     1.000000    
    z[2,2]    OBJ       643.282301    CON17     1.000000    
    z[2,3]    OBJ       537.650180    CON18     1.000000    
    z[3,1]    OBJ       685.164564    CON19     1.000000    
    z[3,2]    OBJ       774.990449    CON20     1.000000    
    z[3,3]    OBJ       753.302348    CON21     1.000000    
    z[4,1]    OBJ       564.142408    CON22     1.000000    
    z[4,2]    OBJ       628.602111    CON23     1.000000    
    z[4,3]    OBJ       912.791990    CON24     1.000000    
    MARKER    'MARKER'                 'INTEND'
RHS
    RHS       CON1      -0.000000     CON2      -0.000000   
    RHS       CON3      -0.000000     CON4      -0.000000   
    RHS       CON5      -0.000000     CON6      -0.000000   
    RHS       CON7      -0.000000     CON8      -0.000000   
    RHS       CON9      -0.000000     CON10     -0.000000   
    RHS       CON11     -0.000000     CON12     -0.000000   
    RHS       CON13     1.000000      CON14     1.000000    
    RHS       CON15     1.000000      CON16     1.000000    
    RHS       CON17     1.000000      CON18     1.000000    
    RHS       CON19     1.000000      CON20     1.000000    
    RHS       CON21     1.000000      CON22     1.000000    
    RHS       CON23     1.000000      CON24     1.000000    
BOUNDS
 BV BOUND     u[1,1]  
 BV BOUND     u[1,2]  
 BV BOUND     u[1,3]  
 BV BOUND     u[2,1]  
 BV BOUND     u[2,2]  
 BV BOUND     u[2,3]  
 BV BOUND     y[1,1,1]
 BV BOUND     y[1,1,2]
 BV BOUND     y[1,1,3]
 BV BOUND     y[1,2,1]
 BV BOUND     y[1,2,2]
 BV BOUND     y[1,2,3]
 BV BOUND     y[1,3,1]
 BV BOUND     y[1,3,2]
 BV BOUND     y[1,3,3]
 BV BOUND     y[1,4,1]
 BV BOUND     y[1,4,2]
 BV BOUND     y[1,4,3]
 BV BOUND     y[2,1,1]
 BV BOUND     y[2,1,2]
 BV BOUND     y[2,1,3]
 BV BOUND     y[2,2,1]
 BV BOUND     y[2,2,2]
 BV BOUND     y[2,2,3]
 BV BOUND     y[2,3,1]
 BV BOUND     y[2,3,2]
 BV BOUND     y[2,3,3]
 BV BOUND     y[2,4,1]
 BV BOUND     y[2,4,2]
 BV BOUND     y[2,4,3]
 BV BOUND     z[1,1]  
 BV BOUND     z[1,2]  
 BV BOUND     z[1,3]  
 BV BOUND     z[2,1]  
 BV BOUND     z[2,2]  
 BV BOUND     z[2,3]  
 BV BOUND     z[3,1]  
 BV BOUND     z[3,2]  
 BV BOUND     z[3,3]  
 BV BOUND     z[4,1]  
 BV BOUND     z[4,2]  
 BV BOUND     z[4,3]  
ENDATA
